
Log started (V11.0.0) Sun Apr 20 15:31:56 2008

Tried aggregator 1 time.
Reduced MIP has 240 rows, 8001 columns, and 16040 nonzeros.
Presolve time =    0.06 sec.
Clique table members: 200.
MIP emphasis: balance optimality and feasibility.
MIP search method: dynamic search.
Parallel mode: none, using 1 thread.
Root relaxation solution time =    0.28 sec.

        Nodes                                         Cuts/
   Node  Left     Objective  IInf  Best Integer     Best Node    ItCnt     Gap

*     0+    0                        29933.0000      511.7852      609   98.29%
*     0+    0                          531.0000      511.7852      609    3.62%
      0     0      512.0000    75      531.0000      Fract: 5      618    3.58%
      0     0      512.0000    79      531.0000     Covers: 1      634    3.58%
      0     0      512.0000    80      531.0000     Covers: 2      662    3.58%
      0     2      512.0000    80      531.0000      512.0000      662    3.58%
*    20+   19                          529.0000      512.0000     1515    3.21%
    100    96      515.0000    69      529.0000      512.0000     4103    3.21%
    200   185      517.0000    57      529.0000      512.0000     8763    3.21%
    300   279      518.0000    59      529.0000      512.0000    12428    3.21%
    400   367      521.0000    53      529.0000      512.0000    15781    3.21%
*   478+  288                          524.0000      514.0066    19860    1.91%
    500   298      515.0000    67      524.0000      514.0770    20134    1.89%
    600   329      518.0000    63      524.0000      514.0770    22312    1.89%
    700   349      522.0000    59      524.0000      514.0770    24600    1.89%
    800   361      516.0000    62      524.0000      514.0923    26797    1.89%
    900   402      516.0000    76      524.0000      514.0923    29596    1.89%
   1000   494      517.0000    67      524.0000      514.0923    35418    1.89%
Elapsed time =  44.78 sec. (tree size =  2.98 MB, solutions = 4)
   1100   585      519.0000    61      524.0000      514.0923    38920    1.89%
   1200   570        cutoff            524.0000      516.0000    68752    1.53%
   1300   470        cutoff            524.0000      516.0000   117163    1.53%
   1400   370        cutoff            524.0000      517.0000   167969    1.34%
   1500   270        cutoff            524.0000      518.0000   207498    1.15%
   1600   170        cutoff            524.0000      519.0000   233030    0.95%
   1700    70        cutoff            524.0000      522.0000   251254    0.38%

Cover cuts applied:  88
Mixed integer rounding cuts applied:  15
Gomory fractional cuts applied:  13

Solution pool: 4 solutions saved.

MIP - Integer optimal solution:  Objective = 5.2400000000e+002
Solution time =  111.38 sec.  Iterations = 272829  Nodes = 1771


Incumbent solution
Variable Name           Solution Value
Cmax                        524.000000
X_1_29                        1.000000
X_2_8                         1.000000
X_3_28                        1.000000
X_4_11                        1.000000
X_5_26                        1.000000
X_6_29                        1.000000
X_7_9                         1.000000
X_8_39                        1.000000
X_9_4                         1.000000
X_10_38                       1.000000
X_11_37                       1.000000
X_12_39                       1.000000
X_13_21                       1.000000
X_14_37                       1.000000
X_15_25                       1.000000
X_16_29                       1.000000
X_17_8                        1.000000
X_18_27                       1.000000
X_19_36                       1.000000
X_20_13                       1.000000
X_21_5                        1.000000
X_22_10                       1.000000
X_23_36                       1.000000
X_24_7                        1.000000
X_25_1                        1.000000
X_26_13                       1.000000
X_27_33                       1.000000
X_28_21                       1.000000
X_29_27                       1.000000
X_30_18                       1.000000
X_31_23                       1.000000
X_32_12                       1.000000
X_33_33                       1.000000
X_34_4                        1.000000
X_35_23                       1.000000
X_36_17                       1.000000
X_37_10                       1.000000
X_38_8                        1.000000
X_39_30                       1.000000
X_40_19                       1.000000
X_41_34                       1.000000
X_42_26                       1.000000
X_43_16                       1.000000
X_44_12                       1.000000
X_45_18                       1.000000
X_46_32                       1.000000
X_47_8                        1.000000
X_48_33                       1.000000
X_49_36                       1.000000
X_50_31                       1.000000
X_51_15                       1.000000
X_52_24                       1.000000
X_53_10                       1.000000
X_54_3                        1.000000
X_55_6                        1.000000
X_56_36                       1.000000
X_57_9                        1.000000
X_58_5                        1.000000
X_59_27                       1.000000
X_60_35                       1.000000
X_61_25                       1.000000
X_62_7                        1.000000
X_63_3                        1.000000
X_64_8                        1.000000
X_65_5                        1.000000
X_66_29                       1.000000
X_67_38                       1.000000
X_68_11                       1.000000
X_69_26                       1.000000
X_70_6                        1.000000
X_71_36                       1.000000
X_72_33                       1.000000
X_73_12                       1.000000
X_74_24                       1.000000
X_75_40                       1.000000
X_76_2                        1.000000
X_77_18                       1.000000
X_78_22                       1.000000
X_79_1                        1.000000
X_80_25                       1.000000
X_81_24                       1.000000
X_82_7                        1.000000
X_83_38                       1.000000
X_84_32                       1.000000
X_85_13                       1.000000
X_86_37                       1.000000
X_87_18                       1.000000
X_88_31                       1.000000
X_89_39                       1.000000
X_90_10                       1.000000
X_91_32                       1.000000
X_92_19                       1.000000
X_93_2                        1.000000
X_94_18                       1.000000
X_95_27                       1.000000
X_96_40                       1.000000
X_97_7                        1.000000
X_98_19                       1.000000
X_99_19                       1.000000
X_100_40                      1.000000
X_101_12                      1.000000
X_102_33                      1.000000
X_103_9                       1.000000
X_104_17                      1.000000
X_105_29                      1.000000
X_106_3                       1.000000
X_107_9                       1.000000
X_108_38                      1.000000
X_109_17                      1.000000
X_110_23                      1.000000
X_111_1                       1.000000
X_112_4                       1.000000
X_113_30                      1.000000
X_114_37                      1.000000
X_115_4                       1.000000
X_116_34                      1.000000
X_117_40                      1.000000
X_118_20                      1.000000
X_119_19                      1.000000
X_120_2                       1.000000
X_121_22                      1.000000
X_122_28                      1.000000
X_123_11                      1.000000
X_124_14                      1.000000
X_125_6                       1.000000
X_126_30                      1.000000
X_127_21                      1.000000
X_128_35                      1.000000
X_129_26                      1.000000
X_130_32                      1.000000
X_131_38                      1.000000
X_132_14                      1.000000
X_133_37                      1.000000
X_134_21                      1.000000
X_135_25                      1.000000
X_136_35                      1.000000
X_137_14                      1.000000
X_138_15                      1.000000
X_139_25                      1.000000
X_140_6                       1.000000
X_141_14                      1.000000
X_142_40                      1.000000
X_143_9                       1.000000
X_144_31                      1.000000
X_145_24                      1.000000
X_146_11                      1.000000
X_147_1                       1.000000
X_148_17                      1.000000
X_149_26                      1.000000
X_150_2                       1.000000
X_151_17                      1.000000
X_152_13                      1.000000
X_153_27                      1.000000
X_154_34                      1.000000
X_155_14                      1.000000
X_156_11                      1.000000
X_157_28                      1.000000
X_158_30                      1.000000
X_159_23                      1.000000
X_160_24                      1.000000
X_161_4                       1.000000
X_162_35                      1.000000
X_163_16                      1.000000
X_164_34                      1.000000
X_165_12                      1.000000
X_166_20                      1.000000
X_167_13                      1.000000
X_168_23                      1.000000
X_169_22                      1.000000
X_170_1                       1.000000
X_171_16                      1.000000
X_172_39                      1.000000
X_173_20                      1.000000
X_174_20                      1.000000
X_175_35                      1.000000
X_176_16                      1.000000
X_177_15                      1.000000
X_178_6                       1.000000
X_179_34                      1.000000
X_180_10                      1.000000
X_181_2                       1.000000
X_182_30                      1.000000
X_183_22                      1.000000
X_184_28                      1.000000
X_185_21                      1.000000
X_186_22                      1.000000
X_187_3                       1.000000
X_188_15                      1.000000
X_189_15                      1.000000
X_190_28                      1.000000
X_191_31                      1.000000
X_192_39                      1.000000
X_193_20                      1.000000
X_194_5                       1.000000
X_195_5                       1.000000
X_196_32                      1.000000
X_197_31                      1.000000
X_198_7                       1.000000
X_199_16                      1.000000
X_200_3                       1.000000
All other variables in the range 1-8001 are 0.
